\Problem name: compact

Minimize
OBJROW: C
Subject To
ord(0,1):  - x(0,0) + x(0,3) >= 8
ord(0,2):  x(0,1) - x(0,3) >= 4
ord(0,3):  - x(0,1) + x(0,2) >= 3
ord(1,1):  x(1,1) - x(1,3) >= 5
ord(1,2):  x(1,0) - x(1,1) >= 8
ord(1,3):  - x(1,0) + x(1,2) >= 8
ord(2,1):  x(2,0) - x(2,3) >= 3
ord(2,2):  - x(2,0) + x(2,1) >= 1
ord(2,3):  - x(2,1) + x(2,2) >= 3
ord(3,1):  x(3,1) - x(3,3) >= 8
ord(3,2):  x(3,0) - x(3,1) >= 3
ord(3,3):  - x(3,0) + x(3,2) >= 3
triangle2(0,1,0):  y(0,1,0) + y(1,0,0) = 1
triangle2(0,1,1):  y(0,1,1) + y(1,0,1) = 1
triangle2(0,1,2):  y(0,1,2) + y(1,0,2) = 1
triangle2(0,1,3):  y(0,1,3) + y(1,0,3) = 1
triangle2(0,2,0):  y(0,2,0) + y(2,0,0) = 1
triangle2(0,2,1):  y(0,2,1) + y(2,0,1) = 1
triangle2(0,2,2):  y(0,2,2) + y(2,0,2) = 1
triangle2(0,2,3):  y(0,2,3) + y(2,0,3) = 1
triangle2(0,3,0):  y(0,3,0) + y(3,0,0) = 1
triangle2(0,3,1):  y(0,3,1) + y(3,0,1) = 1
triangle2(0,3,2):  y(0,3,2) + y(3,0,2) = 1
triangle2(0,3,3):  y(0,3,3) + y(3,0,3) = 1
triangle2(1,2,0):  y(1,2,0) + y(2,1,0) = 1
triangle2(1,2,1):  y(1,2,1) + y(2,1,1) = 1
triangle2(1,2,2):  y(1,2,2) + y(2,1,2) = 1
triangle2(1,2,3):  y(1,2,3) + y(2,1,3) = 1
triangle2(1,3,0):  y(1,3,0) + y(3,1,0) = 1
triangle2(1,3,1):  y(1,3,1) + y(3,1,1) = 1
triangle2(1,3,2):  y(1,3,2) + y(3,1,2) = 1
triangle2(1,3,3):  y(1,3,3) + y(3,1,3) = 1
triangle2(2,3,0):  y(2,3,0) + y(3,2,0) = 1
triangle2(2,3,1):  y(2,3,1) + y(3,2,1) = 1
triangle2(2,3,2):  y(2,3,2) + y(3,2,2) = 1
triangle2(2,3,3):  y(2,3,3) + y(3,2,3) = 1
MCLinV(0,1,0):  x(0,0) - v(0,1,0) - x(1,0) = 8
MCLinV(1,0,0):  - x(0,0) - v(1,0,0) + x(1,0) = 8
MCLin1(0,1,0):  u(0,1,0) >= -0
MCLin2(0,1,0):  -76 y(1,0,0) - u(0,1,0) <= -0
MCLin3(0,1,0):  38 y(1,0,0) + v(0,1,0) - u(0,1,0) <= 38
MCLin4(0,1,0):  38 y(1,0,0) - u(0,1,0) >= -0
MCLin5(0,1,0):  -76 y(1,0,0) + v(0,1,0) - u(0,1,0) >= -76
MCLin6(1,0,0):  u(1,0,0) >= -0
MCLin7(1,0,0):  -54 y(0,1,0) - u(1,0,0) <= -0
MCLin8(1,0,0):  60 y(0,1,0) + v(1,0,0) - u(1,0,0) <= 60
MCLin9(1,0,0):  60 y(0,1,0) - u(1,0,0) >= -0
MCLin10(1,0,0):  -54 y(0,1,0) + v(1,0,0) - u(1,0,0) >= -54
MCLinV(0,1,1):  x(0,1) - v(0,1,1) - x(1,1) = 8
MCLinV(1,0,1):  - x(0,1) - v(1,0,1) + x(1,1) = 3
MCLin1(0,1,1):  u(0,1,1) >= -0
MCLin2(0,1,1):  -56 y(1,0,1) - u(0,1,1) <= -0
MCLin3(0,1,1):  58 y(1,0,1) + v(0,1,1) - u(0,1,1) <= 58
MCLin4(0,1,1):  58 y(1,0,1) - u(0,1,1) >= -0
MCLin5(0,1,1):  -56 y(1,0,1) + v(0,1,1) - u(0,1,1) >= -56
MCLin6(1,0,1):  u(1,0,1) >= -0
MCLin7(1,0,1):  -69 y(0,1,1) - u(1,0,1) <= -0
MCLin8(1,0,1):  45 y(0,1,1) + v(1,0,1) - u(1,0,1) <= 45
MCLin9(1,0,1):  45 y(0,1,1) - u(1,0,1) >= -0
MCLin10(1,0,1):  -69 y(0,1,1) + v(1,0,1) - u(1,0,1) >= -69
MCLinV(0,1,2):  x(0,2) - v(0,1,2) - x(1,2) = 4
MCLinV(1,0,2):  - x(0,2) - v(1,0,2) + x(1,2) = 6
MCLin1(0,1,2):  u(0,1,2) >= -0
MCLin2(0,1,2):  -65 y(1,0,2) - u(0,1,2) <= -0
MCLin3(0,1,2):  49 y(1,0,2) + v(0,1,2) - u(0,1,2) <= 49
MCLin4(0,1,2):  49 y(1,0,2) - u(0,1,2) >= -0
MCLin5(0,1,2):  -65 y(1,0,2) + v(0,1,2) - u(0,1,2) >= -65
MCLin6(1,0,2):  u(1,0,2) >= -0
MCLin7(1,0,2):  -59 y(0,1,2) - u(1,0,2) <= -0
MCLin8(1,0,2):  55 y(0,1,2) + v(1,0,2) - u(1,0,2) <= 55
MCLin9(1,0,2):  55 y(0,1,2) - u(1,0,2) >= -0
MCLin10(1,0,2):  -59 y(0,1,2) + v(1,0,2) - u(1,0,2) >= -59
MCLinV(0,1,3):  x(0,3) - v(0,1,3) - x(1,3) = 5
MCLinV(1,0,3):  - x(0,3) - v(1,0,3) + x(1,3) = 4
MCLin1(0,1,3):  u(0,1,3) >= -0
MCLin2(0,1,3):  -52 y(1,0,3) - u(0,1,3) <= -0
MCLin3(0,1,3):  62 y(1,0,3) + v(0,1,3) - u(0,1,3) <= 62
MCLin4(0,1,3):  62 y(1,0,3) - u(0,1,3) >= -0
MCLin5(0,1,3):  -52 y(1,0,3) + v(0,1,3) - u(0,1,3) >= -52
MCLin6(1,0,3):  u(1,0,3) >= -0
MCLin7(1,0,3):  -71 y(0,1,3) - u(1,0,3) <= -0
MCLin8(1,0,3):  43 y(0,1,3) + v(1,0,3) - u(1,0,3) <= 43
MCLin9(1,0,3):  43 y(0,1,3) - u(1,0,3) >= -0
MCLin10(1,0,3):  -71 y(0,1,3) + v(1,0,3) - u(1,0,3) >= -71
MCLinV(0,2,0):  x(0,0) - v(0,2,0) - x(2,0) = 1
MCLinV(2,0,0):  - x(0,0) - v(2,0,0) + x(2,0) = 8
MCLin1(0,2,0):  u(0,2,0) >= -0
MCLin2(0,2,0):  -67 y(2,0,0) - u(0,2,0) <= -0
MCLin3(0,2,0):  55 y(2,0,0) + v(0,2,0) - u(0,2,0) <= 55
MCLin4(0,2,0):  55 y(2,0,0) - u(0,2,0) >= -0
MCLin5(0,2,0):  -67 y(2,0,0) + v(0,2,0) - u(0,2,0) >= -67
MCLin6(2,0,0):  u(2,0,0) >= -0
MCLin7(2,0,0):  -64 y(0,2,0) - u(2,0,0) <= -0
MCLin8(2,0,0):  58 y(0,2,0) + v(2,0,0) - u(2,0,0) <= 58
MCLin9(2,0,0):  58 y(0,2,0) - u(2,0,0) >= -0
MCLin10(2,0,0):  -64 y(0,2,0) + v(2,0,0) - u(2,0,0) >= -64
MCLinV(0,2,1):  x(0,1) - v(0,2,1) - x(2,1) = 3
MCLinV(2,0,1):  - x(0,1) - v(2,0,1) + x(2,1) = 3
MCLin1(0,2,1):  u(0,2,1) >= -0
MCLin2(0,2,1):  -58 y(2,0,1) - u(0,2,1) <= -0
MCLin3(0,2,1):  64 y(2,0,1) + v(0,2,1) - u(0,2,1) <= 64
MCLin4(0,2,1):  64 y(2,0,1) - u(0,2,1) >= -0
MCLin5(0,2,1):  -58 y(2,0,1) + v(0,2,1) - u(0,2,1) >= -58
MCLin6(2,0,1):  u(2,0,1) >= -0
MCLin7(2,0,1):  -70 y(0,2,1) - u(2,0,1) <= -0
MCLin8(2,0,1):  52 y(0,2,1) + v(2,0,1) - u(2,0,1) <= 52
MCLin9(2,0,1):  52 y(0,2,1) - u(2,0,1) >= -0
MCLin10(2,0,1):  -70 y(0,2,1) + v(2,0,1) - u(2,0,1) >= -70
MCLinV(0,2,2):  x(0,2) - v(0,2,2) - x(2,2) = 10
MCLinV(2,0,2):  - x(0,2) - v(2,0,2) + x(2,2) = 6
MCLin1(0,2,2):  u(0,2,2) >= -0
MCLin2(0,2,2):  -65 y(2,0,2) - u(0,2,2) <= -0
MCLin3(0,2,2):  57 y(2,0,2) + v(0,2,2) - u(0,2,2) <= 57
MCLin4(0,2,2):  57 y(2,0,2) - u(0,2,2) >= -0
MCLin5(0,2,2):  -65 y(2,0,2) + v(0,2,2) - u(0,2,2) >= -65
MCLin6(2,0,2):  u(2,0,2) >= -0
MCLin7(2,0,2):  -73 y(0,2,2) - u(2,0,2) <= -0
MCLin8(2,0,2):  49 y(0,2,2) + v(2,0,2) - u(2,0,2) <= 49
MCLin9(2,0,2):  49 y(0,2,2) - u(2,0,2) >= -0
MCLin10(2,0,2):  -73 y(0,2,2) + v(2,0,2) - u(2,0,2) >= -73
MCLinV(0,2,3):  x(0,3) - v(0,2,3) - x(2,3) = 3
MCLinV(2,0,3):  - x(0,3) - v(2,0,3) + x(2,3) = 4
MCLin1(0,2,3):  u(0,2,3) >= -0
MCLin2(0,2,3):  -58 y(2,0,3) - u(0,2,3) <= -0
MCLin3(0,2,3):  64 y(2,0,3) + v(0,2,3) - u(0,2,3) <= 64
MCLin4(0,2,3):  64 y(2,0,3) - u(0,2,3) >= -0
MCLin5(0,2,3):  -58 y(2,0,3) + v(0,2,3) - u(0,2,3) >= -58
MCLin6(2,0,3):  u(2,0,3) >= -0
MCLin7(2,0,3):  -71 y(0,2,3) - u(2,0,3) <= -0
MCLin8(2,0,3):  51 y(0,2,3) + v(2,0,3) - u(2,0,3) <= 51
MCLin9(2,0,3):  51 y(0,2,3) - u(2,0,3) >= -0
MCLin10(2,0,3):  -71 y(0,2,3) + v(2,0,3) - u(2,0,3) >= -71
MCLinV(0,3,0):  x(0,0) - v(0,3,0) - x(3,0) = 3
MCLinV(3,0,0):  - x(0,0) - v(3,0,0) + x(3,0) = 8
MCLin1(0,3,0):  u(0,3,0) >= -0
MCLin2(0,3,0):  -77 y(3,0,0) - u(0,3,0) <= -0
MCLin3(0,3,0):  45 y(3,0,0) + v(0,3,0) - u(0,3,0) <= 45
MCLin4(0,3,0):  45 y(3,0,0) - u(0,3,0) >= -0
MCLin5(0,3,0):  -77 y(3,0,0) + v(0,3,0) - u(0,3,0) >= -77
MCLin6(3,0,0):  u(3,0,0) >= -0
MCLin7(3,0,0):  -56 y(0,3,0) - u(3,0,0) <= -0
MCLin8(3,0,0):  66 y(0,3,0) + v(3,0,0) - u(3,0,0) <= 66
MCLin9(3,0,0):  66 y(0,3,0) - u(3,0,0) >= -0
MCLin10(3,0,0):  -56 y(0,3,0) + v(3,0,0) - u(3,0,0) >= -56
MCLinV(0,3,1):  x(0,1) - v(0,3,1) - x(3,1) = 3
MCLinV(3,0,1):  - x(0,1) - v(3,0,1) + x(3,1) = 3
MCLin1(0,3,1):  u(0,3,1) >= -0
MCLin2(0,3,1):  -62 y(3,0,1) - u(0,3,1) <= -0
MCLin3(0,3,1):  60 y(3,0,1) + v(0,3,1) - u(0,3,1) <= 60
MCLin4(0,3,1):  60 y(3,0,1) - u(0,3,1) >= -0
MCLin5(0,3,1):  -62 y(3,0,1) + v(0,3,1) - u(0,3,1) >= -62
MCLin6(3,0,1):  u(3,0,1) >= -0
MCLin7(3,0,1):  -66 y(0,3,1) - u(3,0,1) <= -0
MCLin8(3,0,1):  56 y(0,3,1) + v(3,0,1) - u(3,0,1) <= 56
MCLin9(3,0,1):  56 y(0,3,1) - u(3,0,1) >= -0
MCLin10(3,0,1):  -66 y(0,3,1) + v(3,0,1) - u(3,0,1) >= -66
MCLinV(0,3,2):  x(0,2) - v(0,3,2) - x(3,2) = 3
MCLinV(3,0,2):  - x(0,2) - v(3,0,2) + x(3,2) = 6
MCLin1(0,3,2):  u(0,3,2) >= -0
MCLin2(0,3,2):  -65 y(3,0,2) - u(0,3,2) <= -0
MCLin3(0,3,2):  57 y(3,0,2) + v(0,3,2) - u(0,3,2) <= 57
MCLin4(0,3,2):  57 y(3,0,2) - u(0,3,2) >= -0
MCLin5(0,3,2):  -65 y(3,0,2) + v(0,3,2) - u(0,3,2) >= -65
MCLin6(3,0,2):  u(3,0,2) >= -0
MCLin7(3,0,2):  -66 y(0,3,2) - u(3,0,2) <= -0
MCLin8(3,0,2):  56 y(0,3,2) + v(3,0,2) - u(3,0,2) <= 56
MCLin9(3,0,2):  56 y(0,3,2) - u(3,0,2) >= -0
MCLin10(3,0,2):  -66 y(0,3,2) + v(3,0,2) - u(3,0,2) >= -66
MCLinV(0,3,3):  x(0,3) - v(0,3,3) - x(3,3) = 8
MCLinV(3,0,3):  - x(0,3) - v(3,0,3) + x(3,3) = 4
MCLin1(0,3,3):  u(0,3,3) >= -0
MCLin2(0,3,3):  -63 y(3,0,3) - u(0,3,3) <= -0
MCLin3(0,3,3):  59 y(3,0,3) + v(0,3,3) - u(0,3,3) <= 59
MCLin4(0,3,3):  59 y(3,0,3) - u(0,3,3) >= -0
MCLin5(0,3,3):  -63 y(3,0,3) + v(0,3,3) - u(0,3,3) >= -63
MCLin6(3,0,3):  u(3,0,3) >= -0
MCLin7(3,0,3):  -71 y(0,3,3) - u(3,0,3) <= -0
MCLin8(3,0,3):  51 y(0,3,3) + v(3,0,3) - u(3,0,3) <= 51
MCLin9(3,0,3):  51 y(0,3,3) - u(3,0,3) >= -0
MCLin10(3,0,3):  -71 y(0,3,3) + v(3,0,3) - u(3,0,3) >= -71
MCLinV(1,2,0):  x(1,0) - v(1,2,0) - x(2,0) = 1
MCLinV(2,1,0):  - x(1,0) - v(2,1,0) + x(2,0) = 8
MCLin1(1,2,0):  u(1,2,0) >= -0
MCLin2(1,2,0):  -54 y(2,1,0) - u(1,2,0) <= -0
MCLin3(1,2,0):  64 y(2,1,0) + v(1,2,0) - u(1,2,0) <= 64
MCLin4(1,2,0):  64 y(2,1,0) - u(1,2,0) >= -0
MCLin5(1,2,0):  -54 y(2,1,0) + v(1,2,0) - u(1,2,0) >= -54
MCLin6(2,1,0):  u(2,1,0) >= -0
MCLin7(2,1,0):  -73 y(1,2,0) - u(2,1,0) <= -0
MCLin8(2,1,0):  45 y(1,2,0) + v(2,1,0) - u(2,1,0) <= 45
MCLin9(2,1,0):  45 y(1,2,0) - u(2,1,0) >= -0
MCLin10(2,1,0):  -73 y(1,2,0) + v(2,1,0) - u(2,1,0) >= -73
MCLinV(1,2,1):  x(1,1) - v(1,2,1) - x(2,1) = 3
MCLinV(2,1,1):  - x(1,1) - v(2,1,1) + x(2,1) = 8
MCLin1(1,2,1):  u(1,2,1) >= -0
MCLin2(1,2,1):  -65 y(2,1,1) - u(1,2,1) <= -0
MCLin3(1,2,1):  53 y(2,1,1) + v(1,2,1) - u(1,2,1) <= 53
MCLin4(1,2,1):  53 y(2,1,1) - u(1,2,1) >= -0
MCLin5(1,2,1):  -65 y(2,1,1) + v(1,2,1) - u(1,2,1) >= -65
MCLin6(2,1,1):  u(2,1,1) >= -0
MCLin7(2,1,1):  -64 y(1,2,1) - u(2,1,1) <= -0
MCLin8(2,1,1):  54 y(1,2,1) + v(2,1,1) - u(2,1,1) <= 54
MCLin9(2,1,1):  54 y(1,2,1) - u(2,1,1) >= -0
MCLin10(2,1,1):  -64 y(1,2,1) + v(2,1,1) - u(2,1,1) >= -64
MCLinV(1,2,2):  x(1,2) - v(1,2,2) - x(2,2) = 10
MCLinV(2,1,2):  - x(1,2) - v(2,1,2) + x(2,2) = 4
MCLin1(1,2,2):  u(1,2,2) >= -0
MCLin2(1,2,2):  -59 y(2,1,2) - u(1,2,2) <= -0
MCLin3(1,2,2):  59 y(2,1,2) + v(1,2,2) - u(1,2,2) <= 59
MCLin4(1,2,2):  59 y(2,1,2) - u(1,2,2) >= -0
MCLin5(1,2,2):  -59 y(2,1,2) + v(1,2,2) - u(1,2,2) >= -59
MCLin6(2,1,2):  u(2,1,2) >= -0
MCLin7(2,1,2):  -73 y(1,2,2) - u(2,1,2) <= -0
MCLin8(2,1,2):  45 y(1,2,2) + v(2,1,2) - u(2,1,2) <= 45
MCLin9(2,1,2):  45 y(1,2,2) - u(2,1,2) >= -0
MCLin10(2,1,2):  -73 y(1,2,2) + v(2,1,2) - u(2,1,2) >= -73
MCLinV(1,2,3):  x(1,3) - v(1,2,3) - x(2,3) = 3
MCLinV(2,1,3):  - x(1,3) - v(2,1,3) + x(2,3) = 5
MCLin1(1,2,3):  u(1,2,3) >= -0
MCLin2(1,2,3):  -66 y(2,1,3) - u(1,2,3) <= -0
MCLin3(1,2,3):  52 y(2,1,3) + v(1,2,3) - u(1,2,3) <= 52
MCLin4(1,2,3):  52 y(2,1,3) - u(1,2,3) >= -0
MCLin5(1,2,3):  -66 y(2,1,3) + v(1,2,3) - u(1,2,3) >= -66
MCLin6(2,1,3):  u(2,1,3) >= -0
MCLin7(2,1,3):  -60 y(1,2,3) - u(2,1,3) <= -0
MCLin8(2,1,3):  58 y(1,2,3) + v(2,1,3) - u(2,1,3) <= 58
MCLin9(2,1,3):  58 y(1,2,3) - u(2,1,3) >= -0
MCLin10(2,1,3):  -60 y(1,2,3) + v(2,1,3) - u(2,1,3) >= -60
MCLinV(1,3,0):  x(1,0) - v(1,3,0) - x(3,0) = 3
MCLinV(3,1,0):  - x(1,0) - v(3,1,0) + x(3,0) = 8
MCLin1(1,3,0):  u(1,3,0) >= -0
MCLin2(1,3,0):  -64 y(3,1,0) - u(1,3,0) <= -0
MCLin3(1,3,0):  54 y(3,1,0) + v(1,3,0) - u(1,3,0) <= 54
MCLin4(1,3,0):  54 y(3,1,0) - u(1,3,0) >= -0
MCLin5(1,3,0):  -64 y(3,1,0) + v(1,3,0) - u(1,3,0) >= -64
MCLin6(3,1,0):  u(3,1,0) >= -0
MCLin7(3,1,0):  -65 y(1,3,0) - u(3,1,0) <= -0
MCLin8(3,1,0):  53 y(1,3,0) + v(3,1,0) - u(3,1,0) <= 53
MCLin9(3,1,0):  53 y(1,3,0) - u(3,1,0) >= -0
MCLin10(3,1,0):  -65 y(1,3,0) + v(3,1,0) - u(3,1,0) >= -65
MCLinV(1,3,1):  x(1,1) - v(1,3,1) - x(3,1) = 3
MCLinV(3,1,1):  - x(1,1) - v(3,1,1) + x(3,1) = 8
MCLin1(1,3,1):  u(1,3,1) >= -0
MCLin2(1,3,1):  -69 y(3,1,1) - u(1,3,1) <= -0
MCLin3(1,3,1):  49 y(3,1,1) + v(1,3,1) - u(1,3,1) <= 49
MCLin4(1,3,1):  49 y(3,1,1) - u(1,3,1) >= -0
MCLin5(1,3,1):  -69 y(3,1,1) + v(1,3,1) - u(1,3,1) >= -69
MCLin6(3,1,1):  u(3,1,1) >= -0
MCLin7(3,1,1):  -60 y(1,3,1) - u(3,1,1) <= -0
MCLin8(3,1,1):  58 y(1,3,1) + v(3,1,1) - u(3,1,1) <= 58
MCLin9(3,1,1):  58 y(1,3,1) - u(3,1,1) >= -0
MCLin10(3,1,1):  -60 y(1,3,1) + v(3,1,1) - u(3,1,1) >= -60
MCLinV(1,3,2):  x(1,2) - v(1,3,2) - x(3,2) = 3
MCLinV(3,1,2):  - x(1,2) - v(3,1,2) + x(3,2) = 4
MCLin1(1,3,2):  u(1,3,2) >= -0
MCLin2(1,3,2):  -59 y(3,1,2) - u(1,3,2) <= -0
MCLin3(1,3,2):  59 y(3,1,2) + v(1,3,2) - u(1,3,2) <= 59
MCLin4(1,3,2):  59 y(3,1,2) - u(1,3,2) >= -0
MCLin5(1,3,2):  -59 y(3,1,2) + v(1,3,2) - u(1,3,2) >= -59
MCLin6(3,1,2):  u(3,1,2) >= -0
MCLin7(3,1,2):  -66 y(1,3,2) - u(3,1,2) <= -0
MCLin8(3,1,2):  52 y(1,3,2) + v(3,1,2) - u(3,1,2) <= 52
MCLin9(3,1,2):  52 y(1,3,2) - u(3,1,2) >= -0
MCLin10(3,1,2):  -66 y(1,3,2) + v(3,1,2) - u(3,1,2) >= -66
MCLinV(1,3,3):  x(1,3) - v(1,3,3) - x(3,3) = 8
MCLinV(3,1,3):  - x(1,3) - v(3,1,3) + x(3,3) = 5
MCLin1(1,3,3):  u(1,3,3) >= -0
MCLin2(1,3,3):  -71 y(3,1,3) - u(1,3,3) <= -0
MCLin3(1,3,3):  47 y(3,1,3) + v(1,3,3) - u(1,3,3) <= 47
MCLin4(1,3,3):  47 y(3,1,3) - u(1,3,3) >= -0
MCLin5(1,3,3):  -71 y(3,1,3) + v(1,3,3) - u(1,3,3) >= -71
MCLin6(3,1,3):  u(3,1,3) >= -0
MCLin7(3,1,3):  -60 y(1,3,3) - u(3,1,3) <= -0
MCLin8(3,1,3):  58 y(1,3,3) + v(3,1,3) - u(3,1,3) <= 58
MCLin9(3,1,3):  58 y(1,3,3) - u(3,1,3) >= -0
MCLin10(3,1,3):  -60 y(1,3,3) + v(3,1,3) - u(3,1,3) >= -60
MCLinV(2,3,0):  x(2,0) - v(2,3,0) - x(3,0) = 3
MCLinV(3,2,0):  - x(2,0) - v(3,2,0) + x(3,0) = 1
MCLin1(2,3,0):  u(2,3,0) >= -0
MCLin2(2,3,0):  -74 y(3,2,0) - u(2,3,0) <= -0
MCLin3(2,3,0):  52 y(3,2,0) + v(2,3,0) - u(2,3,0) <= 52
MCLin4(2,3,0):  52 y(3,2,0) - u(2,3,0) >= -0
MCLin5(2,3,0):  -74 y(3,2,0) + v(2,3,0) - u(2,3,0) >= -74
MCLin6(3,2,0):  u(3,2,0) >= -0
MCLin7(3,2,0):  -56 y(2,3,0) - u(3,2,0) <= -0
MCLin8(3,2,0):  70 y(2,3,0) + v(3,2,0) - u(3,2,0) <= 70
MCLin9(3,2,0):  70 y(2,3,0) - u(3,2,0) >= -0
MCLin10(3,2,0):  -56 y(2,3,0) + v(3,2,0) - u(3,2,0) >= -56
MCLinV(2,3,1):  x(2,1) - v(2,3,1) - x(3,1) = 3
MCLinV(3,2,1):  - x(2,1) - v(3,2,1) + x(3,1) = 3
MCLin1(2,3,1):  u(2,3,1) >= -0
MCLin2(2,3,1):  -70 y(3,2,1) - u(2,3,1) <= -0
MCLin3(2,3,1):  56 y(3,2,1) + v(2,3,1) - u(2,3,1) <= 56
MCLin4(2,3,1):  56 y(3,2,1) - u(2,3,1) >= -0
MCLin5(2,3,1):  -70 y(3,2,1) + v(2,3,1) - u(2,3,1) >= -70
MCLin6(3,2,1):  u(3,2,1) >= -0
MCLin7(3,2,1):  -62 y(2,3,1) - u(3,2,1) <= -0
MCLin8(3,2,1):  64 y(2,3,1) + v(3,2,1) - u(3,2,1) <= 64
MCLin9(3,2,1):  64 y(2,3,1) - u(3,2,1) >= -0
MCLin10(3,2,1):  -62 y(2,3,1) + v(3,2,1) - u(3,2,1) >= -62
MCLinV(2,3,2):  x(2,2) - v(2,3,2) - x(3,2) = 3
MCLinV(3,2,2):  - x(2,2) - v(3,2,2) + x(3,2) = 10
MCLin1(2,3,2):  u(2,3,2) >= -0
MCLin2(2,3,2):  -73 y(3,2,2) - u(2,3,2) <= -0
MCLin3(2,3,2):  53 y(3,2,2) + v(2,3,2) - u(2,3,2) <= 53
MCLin4(2,3,2):  53 y(3,2,2) - u(2,3,2) >= -0
MCLin5(2,3,2):  -73 y(3,2,2) + v(2,3,2) - u(2,3,2) >= -73
MCLin6(3,2,2):  u(3,2,2) >= -0
MCLin7(3,2,2):  -66 y(2,3,2) - u(3,2,2) <= -0
MCLin8(3,2,2):  60 y(2,3,2) + v(3,2,2) - u(3,2,2) <= 60
MCLin9(3,2,2):  60 y(2,3,2) - u(3,2,2) >= -0
MCLin10(3,2,2):  -66 y(2,3,2) + v(3,2,2) - u(3,2,2) >= -66
MCLinV(2,3,3):  x(2,3) - v(2,3,3) - x(3,3) = 8
MCLinV(3,2,3):  - x(2,3) - v(3,2,3) + x(3,3) = 3
MCLin1(2,3,3):  u(2,3,3) >= -0
MCLin2(2,3,3):  -71 y(3,2,3) - u(2,3,3) <= -0
MCLin3(2,3,3):  55 y(3,2,3) + v(2,3,3) - u(2,3,3) <= 55
MCLin4(2,3,3):  55 y(3,2,3) - u(2,3,3) >= -0
MCLin5(2,3,3):  -71 y(3,2,3) + v(2,3,3) - u(2,3,3) >= -71
MCLin6(3,2,3):  u(3,2,3) >= -0
MCLin7(3,2,3):  -66 y(2,3,3) - u(3,2,3) <= -0
MCLin8(3,2,3):  60 y(2,3,3) + v(3,2,3) - u(3,2,3) <= 60
MCLin9(3,2,3):  60 y(2,3,3) - u(3,2,3) >= -0
MCLin10(3,2,3):  -66 y(2,3,3) + v(3,2,3) - u(3,2,3) >= -66
makespan(0):  C - x(0,2) >= 6
makespan(1):  C - x(1,2) >= 4
makespan(2):  C - x(2,2) >= 10
makespan(3):  C - x(3,2) >= 3
cut_clique_0(0123,0):  0.15625 x(0,0) + 0.12500 x(2,0) >= 1
cut_clique_0(123,0):  0.06623 x(1,0) + 0.00662 x(3,0) >= 1
cut_clique_0(023,0):  0.15625 x(0,0) + 0.12500 x(2,0) >= 1
cut_clique_0(012,0):  0.15625 x(0,0) + 0.12500 x(2,0) >= 1
cut_clique_0(013,0):  0.06623 x(1,0) + 0.00662 x(3,0) >= 1
cut_clique_0(0123,1):  0.01148 x(0,1) + 0.04643 x(1,1) + 0.01148 x(2,1) + 0.02817 x(3,1) >= 1
cut_clique_0(123,1):  0.06017 x(1,1) + 0.01576 x(2,1) + 0.03438 x(3,1) >= 1
cut_clique_0(012,1):  0.01852 x(0,1) + 0.09259 x(1,1) + 0.01852 x(2,1) >= 1
cut_clique_0(013,1):  0.01671 x(0,1) + 0.02924 x(1,1) + 0.04511 x(3,1) >= 1
cut_clique_0(0123,2):  0.01697 x(0,2) + 0.01697 x(1,2) + 0.00662 x(2,2) + 0.01018 x(3,2) >= 1
cut_clique_0(023,2):  0.00603 x(0,2) + 0.01005 x(2,2) + 0.04759 x(3,2) >= 1
cut_clique_0(013,2):  0.00822 x(0,2) + 0.03286 x(1,2) + 0.00747 x(3,2) >= 1
cut_clique_0(012,2):  0.00886 x(0,2) + 0.03543 x(1,2) + 0.00492 x(2,2) >= 1
cut_clique_0(123,2):  0.00973 x(1,2) + 0.00730 x(2,2) + 0.04380 x(3,2) >= 1
cut_clique_0(0123,3):  0.12500 x(1,3) + 0.20000 x(3,3) >= 1
cut_clique_0(123,3):  0.12500 x(1,3) + 0.20000 x(3,3) >= 1
cut_clique_0(012,3):  0.33333 x(1,3) + 0.20000 x(2,3) >= 1
cut_clique_0(013,3):  0.12500 x(1,3) + 0.20000 x(3,3) >= 1
cut_clique_0(023,3):  0.12500 x(2,3) + 0.33333 x(3,3) >= 1
cut_clique_1(0123,1):  0.01325 x(0,1) + 0.07285 x(1,1) + 0.01325 x(2,1) + 0.01325 x(3,1) >= 1
cut_clique_1(123,1):  0.09259 x(1,1) + 0.01852 x(2,1) + 0.01852 x(3,1) >= 1
cut_clique_1(0123,2):  0.01419 x(0,2) + 0.02399 x(1,2) + 0.00426 x(2,2) + 0.00656 x(3,2) >= 1
cut_clique_1(0123,3):  0.02797 x(0,3) + 0.03497 x(1,3) + 0.02098 x(2,3) + 0.05594 x(3,3) >= 1
cut_clique_1(013,3):  0.06034 x(0,3) + 0.04310 x(1,3) + 0.04310 x(3,3) >= 1
cut_clique_1(123,3):  0.06329 x(1,3) + 0.03797 x(2,3) + 0.10127 x(3,3) >= 1
cut_clique_0:  0.05413 x(0,0) + 0.01265 x(1,0) + 0.01519 x(3,0) + 0.03093 x(1,1) + 0.02784 x(2,1) >= 1
cut_clique_1:  0.03719 x(0,0) + 0.01857 x(1,0) + 0.01547 x(3,0) + 0.02774 x(1,1) + 0.02269 x(2,1) >= 1
cut_clique_2:  0.01237 x(0,0) + 0.03327 x(1,0) + 0.01619 x(3,0) + 0.01978 x(1,1) + 0.00989 x(2,1) >= 1
cut_clique_3:  0.00304 x(0,0) + 0.03840 x(1,0) + 0.01638 x(3,0) + 0.01765 x(1,1) + 0.00528 x(2,1) >= 1
Bounds
 0 <= C <= 80
 0 <= x(0,0) <= 59
 0 <= y(0,1,0) <= 1
 0 <= y(1,0,0) <= 1
 -76 <= v(0,1,0) <= 38
 -54 <= v(1,0,0) <= 60
 -800 <= u(0,1,0)
 -800 <= u(1,0,0)
 0 <= y(0,2,0) <= 1
 0 <= y(2,0,0) <= 1
 -67 <= v(0,2,0) <= 55
 -64 <= v(2,0,0) <= 58
 -800 <= u(0,2,0)
 -800 <= u(2,0,0)
 0 <= y(0,3,0) <= 1
 0 <= y(3,0,0) <= 1
 -77 <= v(0,3,0) <= 45
 -56 <= v(3,0,0) <= 66
 -800 <= u(0,3,0)
 -800 <= u(3,0,0)
 13 <= x(1,0) <= 68
 0 <= y(1,2,0) <= 1
 0 <= y(2,1,0) <= 1
 -54 <= v(1,2,0) <= 64
 -73 <= v(2,1,0) <= 45
 -800 <= u(1,2,0)
 -800 <= u(2,1,0)
 0 <= y(1,3,0) <= 1
 0 <= y(3,1,0) <= 1
 -64 <= v(1,3,0) <= 54
 -65 <= v(3,1,0) <= 53
 -800 <= u(1,3,0)
 -800 <= u(3,1,0)
 3 <= x(2,0) <= 66
 0 <= y(2,3,0) <= 1
 0 <= y(3,2,0) <= 1
 -74 <= v(2,3,0) <= 52
 -56 <= v(3,2,0) <= 70
 -800 <= u(2,3,0)
 -800 <= u(3,2,0)
 11 <= x(3,0) <= 74
 12 <= x(0,1) <= 71
 0 <= y(0,1,1) <= 1
 0 <= y(1,0,1) <= 1
 -56 <= v(0,1,1) <= 58
 -69 <= v(1,0,1) <= 45
 -800 <= u(0,1,1)
 -800 <= u(1,0,1)
 0 <= y(0,2,1) <= 1
 0 <= y(2,0,1) <= 1
 -58 <= v(0,2,1) <= 64
 -70 <= v(2,0,1) <= 52
 -800 <= u(0,2,1)
 -800 <= u(2,0,1)
 0 <= y(0,3,1) <= 1
 0 <= y(3,0,1) <= 1
 -62 <= v(0,3,1) <= 60
 -66 <= v(3,0,1) <= 56
 -800 <= u(0,3,1)
 -800 <= u(3,0,1)
 5 <= x(1,1) <= 60
 0 <= y(1,2,1) <= 1
 0 <= y(2,1,1) <= 1
 -65 <= v(1,2,1) <= 53
 -64 <= v(2,1,1) <= 54
 -800 <= u(1,2,1)
 -800 <= u(2,1,1)
 0 <= y(1,3,1) <= 1
 0 <= y(3,1,1) <= 1
 -69 <= v(1,3,1) <= 49
 -60 <= v(3,1,1) <= 58
 -800 <= u(1,3,1)
 -800 <= u(3,1,1)
 4 <= x(2,1) <= 67
 0 <= y(2,3,1) <= 1
 0 <= y(3,2,1) <= 1
 -70 <= v(2,3,1) <= 56
 -62 <= v(3,2,1) <= 64
 -800 <= u(2,3,1)
 -800 <= u(3,2,1)
 8 <= x(3,1) <= 71
 15 <= x(0,2) <= 74
 0 <= y(0,1,2) <= 1
 0 <= y(1,0,2) <= 1
 -65 <= v(0,1,2) <= 49
 -59 <= v(1,0,2) <= 55
 -800 <= u(0,1,2)
 -800 <= u(1,0,2)
 0 <= y(0,2,2) <= 1
 0 <= y(2,0,2) <= 1
 -65 <= v(0,2,2) <= 57
 -73 <= v(2,0,2) <= 49
 -800 <= u(0,2,2)
 -800 <= u(2,0,2)
 0 <= y(0,3,2) <= 1
 0 <= y(3,0,2) <= 1
 -65 <= v(0,3,2) <= 57
 -66 <= v(3,0,2) <= 56
 -800 <= u(0,3,2)
 -800 <= u(3,0,2)
 21 <= x(1,2) <= 76
 0 <= y(1,2,2) <= 1
 0 <= y(2,1,2) <= 1
 -59 <= v(1,2,2) <= 59
 -73 <= v(2,1,2) <= 45
 -800 <= u(1,2,2)
 -800 <= u(2,1,2)
 0 <= y(1,3,2) <= 1
 0 <= y(3,1,2) <= 1
 -59 <= v(1,3,2) <= 59
 -66 <= v(3,1,2) <= 52
 -800 <= u(1,3,2)
 -800 <= u(3,1,2)
 7 <= x(2,2) <= 70
 0 <= y(2,3,2) <= 1
 0 <= y(3,2,2) <= 1
 -73 <= v(2,3,2) <= 53
 -66 <= v(3,2,2) <= 60
 -800 <= u(2,3,2)
 -800 <= u(3,2,2)
 14 <= x(3,2) <= 77
 8 <= x(0,3) <= 67
 0 <= y(0,1,3) <= 1
 0 <= y(1,0,3) <= 1
 -52 <= v(0,1,3) <= 62
 -71 <= v(1,0,3) <= 43
 -800 <= u(0,1,3)
 -800 <= u(1,0,3)
 0 <= y(0,2,3) <= 1
 0 <= y(2,0,3) <= 1
 -58 <= v(0,2,3) <= 64
 -71 <= v(2,0,3) <= 51
 -800 <= u(0,2,3)
 -800 <= u(2,0,3)
 0 <= y(0,3,3) <= 1
 0 <= y(3,0,3) <= 1
 -63 <= v(0,3,3) <= 59
 -71 <= v(3,0,3) <= 51
 -800 <= u(0,3,3)
 -800 <= u(3,0,3)
 0 <= x(1,3) <= 55
 0 <= y(1,2,3) <= 1
 0 <= y(2,1,3) <= 1
 -66 <= v(1,2,3) <= 52
 -60 <= v(2,1,3) <= 58
 -800 <= u(1,2,3)
 -800 <= u(2,1,3)
 0 <= y(1,3,3) <= 1
 0 <= y(3,1,3) <= 1
 -71 <= v(1,3,3) <= 47
 -60 <= v(3,1,3) <= 58
 -800 <= u(1,3,3)
 -800 <= u(3,1,3)
 0 <= x(2,3) <= 63
 0 <= y(2,3,3) <= 1
 0 <= y(3,2,3) <= 1
 -71 <= v(2,3,3) <= 55
 -66 <= v(3,2,3) <= 60
 -800 <= u(2,3,3)
 -800 <= u(3,2,3)
 0 <= x(3,3) <= 63
Integers
C x(0,0) y(0,1,0) y(1,0,0) v(0,1,0) v(1,0,0) u(0,1,0) u(1,0,0) y(0,2,0) y(2,0,0) 
v(0,2,0) v(2,0,0) u(0,2,0) u(2,0,0) y(0,3,0) y(3,0,0) v(0,3,0) v(3,0,0) u(0,3,0) u(3,0,0) 
x(1,0) y(1,2,0) y(2,1,0) v(1,2,0) v(2,1,0) u(1,2,0) u(2,1,0) y(1,3,0) y(3,1,0) v(1,3,0) 
v(3,1,0) u(1,3,0) u(3,1,0) x(2,0) y(2,3,0) y(3,2,0) v(2,3,0) v(3,2,0) u(2,3,0) u(3,2,0) 
x(3,0) x(0,1) y(0,1,1) y(1,0,1) v(0,1,1) v(1,0,1) u(0,1,1) u(1,0,1) y(0,2,1) y(2,0,1) 
v(0,2,1) v(2,0,1) u(0,2,1) u(2,0,1) y(0,3,1) y(3,0,1) v(0,3,1) v(3,0,1) u(0,3,1) u(3,0,1) 
x(1,1) y(1,2,1) y(2,1,1) v(1,2,1) v(2,1,1) u(1,2,1) u(2,1,1) y(1,3,1) y(3,1,1) v(1,3,1) 
v(3,1,1) u(1,3,1) u(3,1,1) x(2,1) y(2,3,1) y(3,2,1) v(2,3,1) v(3,2,1) u(2,3,1) u(3,2,1) 
x(3,1) x(0,2) y(0,1,2) y(1,0,2) v(0,1,2) v(1,0,2) u(0,1,2) u(1,0,2) y(0,2,2) y(2,0,2) 
v(0,2,2) v(2,0,2) u(0,2,2) u(2,0,2) y(0,3,2) y(3,0,2) v(0,3,2) v(3,0,2) u(0,3,2) u(3,0,2) 
x(1,2) y(1,2,2) y(2,1,2) v(1,2,2) v(2,1,2) u(1,2,2) u(2,1,2) y(1,3,2) y(3,1,2) v(1,3,2) 
v(3,1,2) u(1,3,2) u(3,1,2) x(2,2) y(2,3,2) y(3,2,2) v(2,3,2) v(3,2,2) u(2,3,2) u(3,2,2) 
x(3,2) x(0,3) y(0,1,3) y(1,0,3) v(0,1,3) v(1,0,3) u(0,1,3) u(1,0,3) y(0,2,3) y(2,0,3) 
v(0,2,3) v(2,0,3) u(0,2,3) u(2,0,3) y(0,3,3) y(3,0,3) v(0,3,3) v(3,0,3) u(0,3,3) u(3,0,3) 
x(1,3) y(1,2,3) y(2,1,3) v(1,2,3) v(2,1,3) u(1,2,3) u(2,1,3) y(1,3,3) y(3,1,3) v(1,3,3) 
v(3,1,3) u(1,3,3) u(3,1,3) x(2,3) y(2,3,3) y(3,2,3) v(2,3,3) v(3,2,3) u(2,3,3) u(3,2,3) 
x(3,3) 
End
